<number of tasks>
50

<cycle time>
1000

<order strength>
0.196


<task times>
1 148
2 114
3 184
4 197
5 76
6 289
7 197
8 122
9 65
10 307
11 93
12 266
13 33
14 239
15 208
16 163
17 132
18 187
19 34
20 298
21 124
22 96
23 93
24 40
25 262
26 170
27 193
28 24
29 105
30 202
31 129
32 198
33 271
34 58
35 200
36 26
37 57
38 220
39 119
40 253
41 209
42 27
43 68
44 110
45 66
46 223
47 348
48 107
49 110
50 49

<precedence relations>
1,9
2,8
2,12
3,7
3,11
4,6
5,10
5,16
6,32
7,32
8,13
9,14
10,23
11,15
12,16
12,17
12,18
12,19
13,21
14,20
15,22
15,23
15,26
18,24
18,25
20,32
21,27
22,28
24,31
25,29
26,30
27,32
28,34
29,33
29,35
30,36
30,37
32,38
32,39
32,40
32,41
33,43
34,42
35,44
37,45
38,48
41,49
42,46
43,47
45,48
45,50

<end>
